(set-logic ALL)
(set-option :produce-models true)
(define-fun-rec str.toLower ((x String)) String
  (ite (= x "")
      ""
      (let ((Head (str.at x 0)))
        (str.++ 
          (ite (and (<= 65 (str.to_code Head)) 
                     (<= (str.to_code Head) 90))
               (str.from_code (+ (str.to_code Head) 32))
               Head)
          (str.toLower (str.substr x 1 (- (str.len x) 1)))))))
(declare-fun sym800 () String)
(declare-fun sym209 () String)
(declare-fun sym1899 () String)
(declare-fun sym2648 () String)
(declare-fun sym551 () String)
(declare-fun sym2117 () String)
(declare-fun sym1038 () String)
(declare-fun sym2333 () String)
(declare-fun sym1256 () String)
(declare-fun sym2551 () String)
(declare-fun sym1472 () String)
(declare-fun sym161 () String)
(declare-fun sym1690 () String)

(assert (not (= (str.toLower (str.substr sym2551  0 1))"k" )))
(assert (not (= (str.toLower (str.substr sym1256  0 1))"q" )))
(assert (= "" sym161 ))
(assert (not (= "" sym2333 )))
(assert (not (= "" sym800 )))
(assert (not (= (str.toLower (str.substr sym800  0 1))"q" )))
(assert (not (= (str.toLower (str.substr sym1690  0 1))"q" )))
(assert (not (= "n" "y" )))
(assert (= "y" "y" ))
(assert (= (str.toLower (str.substr sym551  0 1))"p" ))
(assert (not (= "" sym2117 )))
(assert (not (= (str.toLower (str.substr sym800  0 1))"p" )))
(assert (not (= (str.toLower (str.substr sym2117  0 1))"q" )))
(assert (not (= (str.toLower (str.substr sym800  0 1))"k" )))
(assert (not (= "" "n" )))
(assert (not (= "" sym209 )))
(assert (= (str.toLower (str.substr sym1899  0 1))"p" ))
(assert (not (= (str.toLower (str.substr sym2117  0 1))"p" )))
(assert (= (str.toLower (str.substr sym209  0 1))"y" ))
(assert (= (str.toLower (str.substr sym800  0 1))"g" ))
(assert (not (= "" sym1472 )))
(assert (not (= "" sym1899 )))
(assert (not (= (str.toLower (str.substr sym2551  0 1))"p" )))
(assert (= (str.toLower (str.substr sym1038  0 1))"p" ))
(assert (not (= (str.toLower (str.substr sym1256  0 1))"k" )))
(assert (not (= (str.toLower (str.substr sym2648  0 1))"y" )))
(assert (= (str.toLower (str.substr sym1256  0 1))"g" ))
(assert (not (= (str.toLower (str.substr sym2117  0 1))"k" )))
(assert (= "" "" ))
(assert (= (str.toLower (str.substr sym2551  0 1))"g" ))
(assert (not (= "" (str.toLower (str.substr sym2648  0 1)))))
(assert (not (= "" sym2648 )))
(assert (not (= "" "y" )))
(assert (= (str.toLower (str.substr sym2333  0 1))"p" ))
(assert (not (= (str.toLower (str.substr sym551  0 1))"q" )))
(assert (not (= (str.toLower (str.substr sym1472  0 1))"q" )))
(assert (= (str.toLower (str.substr sym1472  0 1))"p" ))
(assert (not (= "" "q" )))
(assert (not (= "" sym1256 )))
(assert (not (= "" sym551 )))
(assert (not (= "" sym1038 )))
(assert (= (str.toLower (str.substr sym2117  0 1))"g" ))
(assert (not (= (str.toLower (str.substr sym1690  0 1))"p" )))
(assert (not (= (str.toLower (str.substr sym1038  0 1))"q" )))
(assert (not (= "" (str.toLower (str.substr sym209  0 1)))))
(assert (not (= (str.toLower (str.substr sym2333  0 1))"q" )))
(assert (not (= "" sym2551 )))
(assert (not (= "" sym1690 )))
(assert (not (= "y" "n" )))
(assert (not (= (str.toLower (str.substr sym1690  0 1))"k" )))
(assert (not (= "" "y" )))
(assert (= (str.toLower (str.substr sym1690  0 1))"g" ))
(assert (not (= (str.toLower (str.substr sym1899  0 1))"q" )))
(assert (not (= (str.toLower (str.substr sym2551  0 1))"q" )))
(assert (not (= (str.toLower (str.substr sym1256  0 1))"p" )))
(check-sat)
(get-model)
(exit)
